0 17078 
1 16722 
2 16468 
3 16456 
4 16224 
5 15944 
6 15914 
7 15854 
8 15772 
9 15756 
10 15748 
11 15674 
12 15648 
13 15636 
14 15568 
15 15500 
16 15370 
17 15354 
18 15024 
19 15004 
20 14934 
21 14694 
22 14614 
23 14454 
24 14426 
25 14416 
26 14266 
27 14252 
28 14132 
29 14056 
30 13812 
31 13740 
32 13728 
33 13648 
34 13502 
35 13472 
36 13130 
37 13010 
38 12986 
39 12982 
40 12834 
41 12760 
42 12656 
43 12626 
44 12578 
45 12512 
46 12488 
47 12480 
48 12436 
49 12344 
50 12306 
51 12186 
52 12060 
53 11912 
54 11892 
55 11804 
56 11464 
57 11424 
58 11288 
59 11278 
60 11264 
61 11234 
62 11210 
63 11126 
64 10916 
65 10868 
66 10832 
67 10810 
68 10764 
69 10736 
70 10656 
71 10632 
72 10620 
73 10540 
74 10450 
75 10406 
76 10254 
77 10198 
78 10166 
79 10152 
80 10100 
81 10098 
82 9892 
83 9754 
84 9592 
85 9456 
86 9218 
87 9158 
88 9008 
89 8928 
90 8726 
91 8678 
92 8642 
93 8590 
94 8560 
95 8422 
96 8394 
97 8326 
98 8272 
99 8050 
100 8034 
101 7972 
102 7816 
103 7768 
104 7728 
105 7702 
106 7670 
107 7634 
108 7614 
109 7610 
110 7570 
111 7490 
112 7466 
113 7148 
114 7050 
115 7040 
116 6892 
117 6868 
118 6806 
119 6638 
120 6560 
121 6264 
122 5670 
123 5472 
124 5472 
125 5440 
126 5440 
127 5348 
128 5298 
129 5268 
130 5248 
131 5202 
132 5202 
133 5202 
134 5202 
135 5202 
136 5202 
137 5202 
138 5202 
139 5202 
140 5202 
141 5202 
142 5202 
143 5202 
144 5202 
145 5202 
146 5202 
147 5202 
148 5202 
149 5202 
150 5202 
151 5202 
152 5202 
153 5202 
154 5202 
155 5202 
156 5202 
157 5202 
158 5202 
159 5202 
160 5202 
161 5202 
162 5202 
163 5202 
164 5202 
165 5202 
166 5202 
167 5202 
168 5202 
169 5202 
170 5202 
171 5202 
172 5202 
173 5202 
174 5202 
175 5202 
176 5202 
177 5202 
178 5202 
179 5202 
180 5202 
181 5202 
182 5202 
183 5202 
184 5202 
185 5202 
186 5202 
187 5202 
188 5202 
189 5202 
190 5202 
191 5202 
192 5202 
193 5202 
194 5202 
195 5202 
196 5202 
197 5202 
198 5202 
199 5202 
200 5202 
201 5202 
202 5202 
203 5202 
204 5202 
205 5202 
206 5202 
207 5202 
208 5202 
209 5202 
210 5202 
211 5202 
212 5202 
213 5202 
214 5202 
215 5202 
216 5202 
217 5202 
218 5202 
219 5202 
220 5202 
221 5202 
222 5202 
223 5202 
224 5202 
225 5202 
226 5202 
227 5202 
228 5202 
229 5202 
230 5202 
231 5202 
232 5202 
233 5202 
234 5202 
235 5202 
236 5202 
237 5202 
238 5202 
239 5202 
240 5202 
241 5202 
242 5202 
243 5202 
244 5202 
245 5202 
246 5202 
247 5202 
248 5202 
249 5202 
250 5202 
251 5202 
252 5202 
253 5202 
254 5202 
255 5202 
256 5202 
257 5202 
258 5202 
259 5202 
260 5202 
261 5202 
262 5202 
263 5202 
264 5202 
265 5202 
266 5202 
267 5202 
268 5202 
269 5202 
270 5202 
271 5202 
272 5202 
273 5202 
274 5202 
275 5202 
276 5202 
277 5202 
278 5202 
279 5202 
280 5202 
281 5202 
282 5202 
283 5202 
284 5202 
285 5202 
286 5202 
287 5202 
288 5202 
289 5202 
290 5202 
291 5202 
292 5202 
293 5202 
294 5202 
295 5202 
296 5202 
297 5202 
298 5202 
299 5202 
300 5202 
301 5202 
302 5202 
303 5202 
304 5202 
305 5202 
306 5202 
307 5202 
308 5202 
309 5202 
310 5202 
311 5202 
312 5202 
313 5202 
314 5202 
315 5202 
316 5202 
317 5202 
318 5202 
319 5202 
320 5202 
321 5202 
322 5202 
323 5202 
324 5202 
325 5202 
326 5202 
327 5202 
328 5202 
329 5202 
330 5202 
331 5202 
332 5202 
333 5202 
334 5202 
335 5202 
336 5202 
337 5202 
338 5202 
339 5202 
340 5202 
341 5202 
342 5202 
343 5202 
344 5202 
345 5202 
346 5202 
347 5202 
348 5202 
349 5202 
350 5202 
351 5202 
352 5202 
353 5202 
354 5202 
355 5202 
356 5202 
357 5202 
358 5202 
359 5202 
360 5202 
361 5202 
362 5202 
363 5202 
364 5202 
365 5202 
366 5202 
367 5202 
368 5202 
369 5202 
370 5202 
371 5202 
372 5202 
373 5202 
374 5202 
375 5202 
376 5202 
377 5202 
378 5202 
379 5202 
380 5202 
381 5202 
382 5202 
383 5202 
384 5202 
385 5202 
386 5202 
387 5202 
388 5202 
389 5202 
390 5202 
391 5202 
392 5202 
393 5202 
394 5202 
395 5202 
396 5202 
397 5202 
398 5202 
399 5202 
400 5202 
401 5202 
402 5202 
403 5202 
404 5202 
405 5202 
406 5202 
407 5202 
408 5202 
409 5202 
410 5202 
411 5202 
412 5202 
413 5202 
414 5202 
415 5202 
416 5202 
417 5202 
418 5202 
419 5202 
420 5202 
421 5202 
422 5202 
423 5202 
424 5202 
425 5202 
426 5202 
427 5202 
428 5202 
429 5202 
430 5202 
431 5202 
432 5202 
433 5202 
434 5202 
435 5202 
436 5202 
437 5202 
438 5202 
439 5202 
440 5202 
441 5202 
442 5202 
443 5202 
444 5202 
445 5202 
446 5202 
447 5202 
448 5202 
449 5202 
450 5202 
451 5202 
452 5202 
453 5202 
454 5202 
455 5202 
456 5202 
457 5202 
458 5202 
459 5202 
460 5202 
461 5202 
462 5202 
463 5202 
464 5202 
465 5202 
466 5202 
467 5202 
468 5202 
469 5202 
470 5202 
471 5202 
472 5202 
473 5202 
474 5202 
475 5202 
476 5202 
477 5202 
478 5202 
479 5202 
480 5202 
481 5202 
482 5202 
483 5202 
484 5202 
485 5202 
486 5202 
487 5202 
488 5202 
489 5202 
490 5202 
491 5202 
492 5202 
493 5202 
494 5202 
495 5202 
496 5202 
497 5202 
498 5202 
499 5202 
500 5202 
501 5202 
502 5202 
503 5202 
504 5202 
505 5202 
506 5202 
507 5202 
508 5202 
509 5202 
510 5202 
511 5202 
512 5202 
513 5202 
514 5202 
515 5202 
516 5202 
517 5202 
518 5202 
519 5202 
520 5202 
521 5202 
522 5202 
523 5202 
524 5202 
525 5202 
526 5202 
527 5202 
528 5202 
529 5202 
530 5202 
531 5202 
532 5202 
533 5202 
534 5202 
535 5202 
536 5202 
537 5202 
538 5202 
539 5202 
540 5202 
541 5202 
542 5202 
543 5202 
544 5202 
545 5202 
546 5202 
547 5202 
548 5202 
549 5202 
550 5202 
551 5202 
552 5202 
553 5202 
554 5202 
555 5202 
556 5202 
557 5202 
558 5202 
559 5202 
560 5202 
561 5202 
562 5202 
563 5202 
564 5202 
565 5202 
566 5202 
567 5202 
568 5202 
569 5202 
570 5202 
571 5202 
572 5202 
573 5202 
574 5202 
575 5202 
576 5202 
577 5202 
578 5202 
579 5202 
580 5202 
581 5202 
582 5202 
583 5202 
584 5202 
585 5202 
586 5202 
587 5202 
588 5202 
589 5202 
590 5202 
591 5202 
592 5202 
593 5202 
594 5202 
595 5202 
596 5202 
597 5202 
598 5202 
599 5202 
600 5202 
601 5202 
602 5202 
603 5202 
604 5202 
605 5202 
606 5202 
607 5202 
608 5202 
609 5202 
610 5202 
611 5202 
612 5202 
613 5202 
614 5202 
615 5202 
616 5202 
617 5202 
618 5202 
619 5202 
620 5202 
621 5202 
622 5202 
623 5202 
624 5202 
625 5202 
626 5202 
627 5202 
628 5202 
629 5202 
630 5202 
631 5202 
632 5202 
633 5202 
634 5202 
635 5202 
636 5202 
637 5202 
638 5202 
639 5202 
640 5202 
641 5202 
642 5202 
643 5202 
644 5202 
645 5202 
646 5202 
647 5202 
648 5202 
649 5202 
650 5202 
651 5202 
652 5202 
653 5202 
654 5202 
655 5202 
656 5202 
657 5202 
658 5202 
659 5202 
660 5202 
661 5202 
662 5202 
663 5202 
664 5202 
665 5202 
666 5202 
667 5202 
668 5202 
669 5202 
670 5202 
671 5202 
672 5202 
673 5202 
674 5202 
675 5202 
676 5202 
677 5202 
678 5202 
679 5202 
680 5202 
681 5202 
682 5202 
683 5202 
684 5202 
685 5202 
686 5202 
687 5202 
688 5202 
689 5202 
690 5202 
691 5202 
692 5202 
693 5202 
694 5202 
695 5202 
696 5202 
697 5202 
698 5202 
699 5202 
700 5202 
701 5202 
702 5202 
703 5202 
704 5202 
705 5202 
706 5202 
707 5202 
708 5202 
709 5202 
710 5202 
711 5202 
712 5202 
713 5202 
714 5202 
715 5202 
716 5202 
717 5202 
718 5202 
719 5202 
720 5202 
721 5202 
722 5202 
723 5202 
724 5202 
725 5202 
726 5202 
727 5202 
728 5202 
729 5202 
730 5202 
731 5202 
732 5202 
733 5202 
734 5202 
735 5202 
736 5202 
737 5202 
738 5202 
739 5202 
740 5202 
741 5202 
742 5202 
743 5202 
744 5202 
745 5202 
746 5202 
747 5202 
748 5202 
749 5202 
750 5202 
751 5202 
752 5202 
753 5202 
754 5202 
755 5202 
756 5202 
757 5202 
758 5202 
759 5202 
760 5202 
761 5202 
762 5202 
763 5202 
764 5202 
765 5202 
766 5202 
767 5202 
768 5202 
769 5202 
770 5202 
771 5202 
772 5202 
773 5202 
774 5202 
775 5202 
776 5202 
777 5202 
778 5202 
779 5202 
780 5202 
781 5202 
782 5202 
783 5202 
784 5202 
785 5202 
786 5202 
787 5202 
788 5202 
789 5202 
790 5202 
791 5202 
792 5202 
793 5202 
794 5202 
795 5202 
796 5202 
797 5202 
798 5202 
799 5202 
800 5202 
801 5202 
802 5202 
803 5202 
804 5202 
805 5202 
806 5202 
807 5202 
808 5202 
809 5202 
810 5202 
811 5202 
812 5202 
813 5202 
814 5202 
815 5202 
816 5202 
817 5202 
818 5202 
819 5202 
820 5202 
821 5202 
822 5202 
823 5202 
824 5202 
825 5202 
826 5202 
827 5202 
828 5202 
829 5202 
830 5202 
831 5202 
832 5202 
833 5202 
834 5202 
835 5202 
836 5202 
837 5202 
838 5202 
839 5202 
840 5202 
841 5202 
842 5202 
843 5202 
844 5202 
845 5202 
846 5202 
847 5202 
848 5202 
849 5202 
850 5202 
851 5202 
852 5202 
853 5202 
854 5202 
855 5202 
856 5202 
857 5202 
858 5202 
859 5202 
860 5202 
861 5202 
862 5202 
863 5202 
864 5202 
865 5202 
866 5202 
867 5202 
868 5202 
869 5202 
870 5202 
871 5202 
872 5202 
873 5202 
874 5202 
875 5202 
876 5202 
877 5202 
878 5202 
879 5202 
880 5202 
881 5202 
882 5202 
883 5202 
884 5202 
885 5202 
886 5202 
887 5202 
888 5202 
889 5202 
890 5202 
891 5202 
892 5202 
893 5202 
894 5202 
895 5202 
896 5202 
897 5202 
898 5202 
899 5202 
900 5202 
901 5202 
902 5202 
903 5202 
904 5202 
905 5202 
906 5202 
907 5202 
908 5202 
909 5202 
910 5202 
911 5202 
912 5202 
913 5202 
914 5202 
915 5202 
916 5202 
917 5202 
918 5202 
919 5202 
920 5202 
921 5202 
922 5202 
923 5202 
924 5202 
925 5202 
926 5202 
927 5202 
928 5202 
929 5202 
930 5202 
931 5202 
932 5202 
933 5202 
934 5202 
935 5202 
936 5202 
937 5202 
938 5202 
939 5202 
940 5202 
941 5202 
942 5202 
943 5202 
944 5202 
945 5202 
946 5202 
947 5202 
948 5202 
949 5202 
950 5202 
951 5202 
952 5202 
953 5202 
954 5202 
955 5202 
956 5202 
957 5202 
958 5202 
959 5202 
960 5202 
961 5202 
962 5202 
963 5202 
964 5202 
965 5202 
966 5202 
967 5202 
968 5202 
969 5202 
970 5202 
971 5202 
972 5202 
973 5202 
974 5202 
975 5202 
976 5202 
977 5202 
978 5202 
979 5202 
980 5202 
981 5202 
982 5202 
983 5202 
984 5202 
985 5202 
986 5202 
987 5202 
988 5202 
989 5202 
990 5202 
991 5202 
992 5202 
993 5202 
994 5202 
995 5202 
996 5202 
997 5202 
998 5202 
999 5202 
1000 5202 
1001 5202 
1002 5202 
1003 5202 
1004 5202 
1005 5202 
1006 5202 
1007 5202 
1008 5202 
1009 5202 
1010 5202 
1011 5202 
1012 5202 
1013 5202 
1014 5202 
1015 5202 
1016 5202 
1017 5202 
1018 5202 
1019 5202 
1020 5202 
1021 5202 
1022 5202 
1023 5202 
1024 5202 
1025 5202 
1026 5202 
1027 5202 
1028 5202 
1029 5202 
1030 5202 
1031 5202 
1032 5202 
1033 5202 
1034 5202 
1035 5202 
1036 5202 
1037 5202 
1038 5202 
1039 5202 
1040 5202 
1041 5202 
1042 5202 
1043 5202 
1044 5202 
1045 5202 
1046 5202 
1047 5202 
1048 5202 
1049 5202 
1050 5202 
1051 5202 
1052 5202 
1053 5202 
1054 5202 
1055 5202 
1056 5202 
1057 5202 
1058 5202 
1059 5202 
1060 5202 
1061 5202 
1062 5202 
1063 5202 
1064 5202 
1065 5202 
1066 5202 
1067 5202 
1068 5202 
1069 5202 
1070 5202 
1071 5202 
1072 5202 
1073 5202 
1074 5202 
1075 5202 
1076 5202 
1077 5202 
1078 5202 
1079 5202 
1080 5202 
1081 5202 
1082 5202 
1083 5202 
1084 5202 
1085 5202 
1086 5202 
1087 5202 
1088 5202 
1089 5202 
1090 5202 
1091 5202 
1092 5202 
1093 5202 
1094 5202 
1095 5202 
1096 5202 
1097 5202 
1098 5202 
1099 5202 
1100 5202 
1101 5202 
1102 5202 
1103 5202 
1104 5202 
1105 5202 
1106 5202 
1107 5202 
1108 5202 
1109 5202 
1110 5202 
1111 5202 
1112 5202 
1113 5202 
1114 5202 
1115 5202 
1116 5202 
1117 5202 
1118 5202 
1119 5202 
1120 5202 
1121 5202 
1122 5202 
1123 5202 
1124 5202 
1125 5202 
1126 5202 
1127 5202 
1128 5202 
1129 5202 
1130 5202 
1131 5202 
1132 5202 
1133 5202 
1134 5202 
1135 5202 
1136 5202 
1137 5202 
1138 5202 
1139 5202 
1140 5202 
1141 5202 
1142 5202 
1143 5202 
1144 5202 
1145 5202 
1146 5202 
1147 5202 
1148 5202 
1149 5202 
1150 5202 
1151 5202 
1152 5202 
1153 5202 
1154 5202 
1155 5202 
1156 5202 
1157 5202 
1158 5202 
1159 5202 
1160 5202 
1161 5202 
1162 5202 
1163 5202 
1164 5202 
1165 5202 
1166 5202 
1167 5202 
1168 5202 
1169 5202 
1170 5202 
1171 5202 
1172 5202 
1173 5202 
1174 5202 
1175 5202 
1176 5202 
1177 5202 
1178 5202 
1179 5202 
1180 5202 
1181 5202 
1182 5202 
1183 5202 
1184 5202 
1185 5202 
1186 5202 
1187 5202 
1188 5202 
1189 5202 
1190 5202 
1191 5202 
1192 5202 
1193 5202 
1194 5202 
1195 5202 
1196 5202 
1197 5202 
1198 5202 
1199 5202 
1200 5202 
1201 5202 
1202 5202 
1203 5202 
1204 5202 
1205 5202 
1206 5202 
1207 5202 
1208 5202 
1209 5202 
1210 5202 
1211 5202 
1212 5202 
1213 5202 
1214 5202 
1215 5202 
1216 5202 
1217 5202 
1218 5202 
1219 5202 
1220 5202 
1221 5202 
1222 5202 
1223 5202 
1224 5202 
1225 5202 
1226 5202 
1227 5202 
1228 5202 
1229 5202 
1230 5202 
1231 5202 
1232 5202 
1233 5202 
1234 5202 
1235 5202 
1236 5202 
1237 5202 
1238 5202 
1239 5202 
1240 5202 
1241 5202 
1242 5202 
1243 5202 
1244 5202 
1245 5202 
1246 5202 
1247 5202 
1248 5202 
1249 5202 
1250 5202 
1251 5202 
1252 5202 
1253 5202 
1254 5202 
1255 5202 
1256 5202 
1257 5202 
1258 5202 
1259 5202 
1260 5202 
1261 5202 
1262 5202 
1263 5202 
1264 5202 
1265 5202 
1266 5202 
1267 5202 
1268 5202 
1269 5202 
1270 5202 
1271 5202 
1272 5202 
1273 5202 
1274 5202 
1275 5202 
1276 5202 
1277 5202 
1278 5202 
1279 5202 
1280 5202 
1281 5202 
1282 5202 
1283 5202 
1284 5202 
1285 5202 
1286 5202 
1287 5202 
1288 5202 
1289 5202 
1290 5202 
1291 5202 
1292 5202 
1293 5202 
1294 5202 
1295 5202 
1296 5202 
1297 5202 
1298 5202 
1299 5202 
1300 5202 
1301 5202 
1302 5202 
1303 5202 
1304 5202 
1305 5202 
1306 5202 
1307 5202 
1308 5202 
1309 5202 
1310 5202 
1311 5202 
1312 5202 
1313 5202 
1314 5202 
1315 5202 
1316 5202 
1317 5202 
1318 5202 
1319 5202 
1320 5202 
1321 5202 
1322 5202 
1323 5202 
1324 5202 
1325 5202 
1326 5202 
1327 5202 
1328 5202 
1329 5202 
1330 5202 
1331 5202 
1332 5202 
1333 5202 
1334 5202 
1335 5202 
1336 5202 
1337 5202 
1338 5202 
1339 5202 
1340 5202 
1341 5202 
1342 5202 
1343 5202 
1344 5202 
1345 5202 
1346 5202 
1347 5202 
1348 5202 
1349 5202 
1350 5202 
1351 5202 
1352 5202 
1353 5202 
1354 5202 
1355 5202 
1356 5202 
1357 5202 
1358 5202 
1359 5202 
1360 5202 
1361 5202 
1362 5202 
1363 5202 
1364 5202 
1365 5202 
1366 5202 
1367 5202 
1368 5202 
1369 5202 
1370 5202 
1371 5202 
1372 5202 
1373 5202 
1374 5202 
1375 5202 
1376 5202 
1377 5202 
1378 5202 
1379 5202 
1380 5202 
1381 5202 
1382 5202 
1383 5202 
1384 5202 
1385 5202 
1386 5202 
1387 5202 
1388 5202 
1389 5202 
1390 5202 
1391 5202 
1392 5202 
1393 5202 
1394 5202 
1395 5202 
1396 5202 
1397 5202 
1398 5202 
1399 5202 
1400 5202 
1401 5202 
1402 5202 
1403 5202 
1404 5202 
1405 5202 
1406 5202 
1407 5202 
1408 5202 
1409 5202 
1410 5202 
1411 5202 
1412 5202 
1413 5202 
1414 5202 
1415 5202 
1416 5202 
1417 5202 
1418 5202 
1419 5202 
1420 5202 
1421 5202 
1422 5202 
1423 5202 
1424 5202 
1425 5202 
1426 5202 
1427 5202 
1428 5202 
1429 5202 
1430 5202 
1431 5202 
1432 5202 
1433 5202 
1434 5202 
1435 5202 
1436 5202 
1437 5202 
1438 5202 
1439 5202 
1440 5202 
1441 5202 
1442 5202 
1443 5202 
1444 5202 
1445 5202 
1446 5202 
1447 5202 
1448 5202 
1449 5202 
1450 5202 
1451 5202 
1452 5202 
1453 5202 
1454 5202 
1455 5202 
1456 5202 
1457 5202 
1458 5202 
1459 5202 
1460 5202 
1461 5202 
1462 5202 
1463 5202 
1464 5202 
1465 5202 
1466 5202 
1467 5202 
1468 5202 
1469 5202 
1470 5202 
1471 5202 
1472 5202 
1473 5202 
1474 5202 
1475 5202 
1476 5202 
1477 5202 
1478 5202 
1479 5202 
1480 5202 
1481 5202 
1482 5202 
1483 5202 
1484 5202 
1485 5202 
1486 5202 
1487 5202 
1488 5202 
1489 5202 
1490 5202 
1491 5202 
1492 5202 
1493 5202 
1494 5202 
1495 5202 
1496 5202 
1497 5202 
1498 5202 
1499 5202 
1500 5202 
1501 5202 
1502 5202 
1503 5202 
1504 5202 
1505 5202 
1506 5202 
1507 5202 
1508 5202 
1509 5202 
1510 5202 
1511 5202 
1512 5202 
1513 5202 
1514 5202 
1515 5202 
1516 5202 
1517 5202 
1518 5202 
1519 5202 
1520 5202 
1521 5202 
1522 5202 
1523 5202 
1524 5202 
1525 5202 
1526 5202 
1527 5202 
1528 5202 
1529 5202 
1530 5202 
1531 5202 
1532 5202 
1533 5202 
1534 5202 
1535 5202 
1536 5202 
1537 5202 
1538 5202 
1539 5202 
1540 5202 
1541 5202 
1542 5202 
1543 5202 
1544 5202 
1545 5202 
1546 5202 
1547 5202 
1548 5202 
1549 5202 
1550 5202 
1551 5202 
1552 5202 
1553 5202 
1554 5202 
1555 5202 
1556 5202 
1557 5202 
1558 5202 
1559 5202 
1560 5202 
1561 5202 
1562 5202 
1563 5202 
1564 5202 
1565 5202 
1566 5202 
1567 5202 
1568 5202 
1569 5202 
1570 5202 
1571 5202 
1572 5202 
1573 5202 
1574 5202 
1575 5202 
1576 5202 
1577 5202 
1578 5202 
1579 5202 
1580 5202 
1581 5202 
1582 5202 
1583 5202 
1584 5202 
1585 5202 
1586 5202 
1587 5202 
1588 5202 
1589 5202 
1590 5202 
1591 5202 
1592 5202 
1593 5202 
1594 5202 
1595 5202 
1596 5202 
1597 5202 
1598 5202 
1599 5202 
1600 5202 
1601 5202 
1602 5202 
1603 5202 
1604 5202 
1605 5202 
1606 5202 
1607 5202 
1608 5202 
1609 5202 
1610 5202 
1611 5202 
1612 5202 
1613 5202 
1614 5202 
1615 5202 
1616 5202 
1617 5202 
1618 5202 
1619 5202 
1620 5202 
1621 5202 
1622 5202 
1623 5202 
1624 5202 
1625 5202 
1626 5202 
1627 5202 
1628 5202 
1629 5202 
1630 5202 
1631 5202 
1632 5202 
1633 5202 
1634 5202 
1635 5202 
1636 5202 
1637 5202 
1638 5202 
1639 5202 
1640 5202 
1641 5202 
1642 5202 
1643 5202 
1644 5202 
1645 5202 
1646 5202 
1647 5202 
1648 5202 
1649 5202 
1650 5202 
1651 5202 
1652 5202 
1653 5202 
1654 5202 
1655 5202 
1656 5202 
1657 5202 
1658 5202 
1659 5202 
1660 5202 
1661 5202 
1662 5202 
1663 5202 
1664 5202 
1665 5202 
1666 5202 
1667 5202 
1668 5202 
1669 5202 
1670 5202 
1671 5202 
1672 5202 
1673 5202 
1674 5202 
1675 5202 
1676 5202 
1677 5202 
1678 5202 
1679 5202 
1680 5202 
1681 5202 
1682 5202 
1683 5202 
1684 5202 
1685 5202 
1686 5202 
1687 5202 
1688 5202 
1689 5202 
1690 5202 
1691 5202 
1692 5202 
1693 5202 
1694 5202 
1695 5202 
1696 5202 
1697 5202 
1698 5202 
1699 5202 
1700 5202 
1701 5202 
1702 5202 
1703 5202 
1704 5202 
1705 5202 
1706 5202 
1707 5202 
1708 5202 
1709 5202 
1710 5202 
1711 5202 
1712 5202 
1713 5202 
1714 5202 
1715 5202 
1716 5202 
1717 5202 
1718 5202 
1719 5202 
1720 5202 
1721 5202 
1722 5202 
1723 5202 
1724 5202 
1725 5202 
1726 5202 
1727 5202 
1728 5202 
1729 5202 
1730 5202 
1731 5202 
1732 5202 
1733 5202 
1734 5202 
1735 5202 
1736 5202 
1737 5202 
1738 5202 
1739 5202 
1740 5202 
1741 5202 
1742 5202 
1743 5202 
1744 5202 
1745 5202 
1746 5202 
1747 5202 
1748 5202 
1749 5202 
1750 5202 
1751 5202 
1752 5202 
1753 5202 
1754 5202 
1755 5202 
1756 5202 
1757 5202 
1758 5202 
1759 5202 
1760 5202 
1761 5202 
1762 5202 
1763 5202 
1764 5202 
1765 5202 
1766 5202 
1767 5202 
1768 5202 
1769 5202 
1770 5202 
1771 5202 
1772 5202 
1773 5202 
1774 5202 
1775 5202 
1776 5202 
1777 5202 
1778 5202 
1779 5202 
1780 5202 
1781 5202 
1782 5202 
1783 5202 
1784 5202 
1785 5202 
1786 5202 
1787 5202 
1788 5202 
1789 5202 
1790 5202 
1791 5202 
1792 5202 
1793 5202 
1794 5202 
1795 5202 
1796 5202 
1797 5202 
1798 5202 
1799 5202 
1800 5202 
1801 5202 
1802 5202 
1803 5202 
1804 5202 
1805 5202 
1806 5202 
1807 5202 
1808 5202 
1809 5202 
1810 5202 
1811 5202 
1812 5202 
1813 5202 
1814 5202 
1815 5202 
1816 5202 
1817 5202 
1818 5202 
1819 5202 
1820 5202 
1821 5202 
1822 5202 
1823 5202 
1824 5202 
1825 5202 
1826 5202 
1827 5202 
1828 5202 
1829 5202 
1830 5202 
1831 5202 
1832 5202 
1833 5202 
1834 5202 
1835 5202 
1836 5202 
1837 5202 
1838 5202 
1839 5202 
1840 5202 
1841 5202 
1842 5202 
1843 5202 
1844 5202 
1845 5202 
1846 5202 
1847 5202 
1848 5202 
1849 5202 
1850 5202 
1851 5202 
1852 5202 
1853 5202 
1854 5202 
1855 5202 
1856 5202 
1857 5202 
1858 5202 
1859 5202 
1860 5202 
1861 5202 
1862 5202 
1863 5202 
1864 5202 
1865 5202 
1866 5202 
1867 5202 
1868 5202 
1869 5202 
1870 5202 
1871 5202 
1872 5202 
1873 5202 
1874 5202 
1875 5202 
1876 5202 
1877 5202 
1878 5202 
1879 5202 
1880 5202 
1881 5202 
1882 5202 
1883 5202 
1884 5202 
1885 5202 
1886 5202 
1887 5202 
1888 5202 
1889 5202 
1890 5202 
1891 5202 
1892 5202 
1893 5202 
1894 5202 
1895 5202 
1896 5202 
1897 5202 
1898 5202 
1899 5202 
1900 5202 
1901 5202 
1902 5202 
1903 5202 
1904 5202 
1905 5202 
1906 5202 
1907 5202 
1908 5202 
1909 5202 
1910 5202 
1911 5202 
1912 5202 
1913 5202 
1914 5202 
1915 5202 
1916 5202 
1917 5202 
1918 5202 
1919 5202 
1920 5202 
1921 5202 
1922 5202 
1923 5202 
1924 5202 
1925 5202 
1926 5202 
1927 5202 
1928 5202 
1929 5202 
1930 5202 
1931 5202 
1932 5202 
1933 5202 
1934 5202 
1935 5202 
1936 5202 
1937 5202 
1938 5202 
1939 5202 
1940 5202 
1941 5202 
1942 5202 
1943 5202 
1944 5202 
1945 5202 
1946 5202 
1947 5202 
1948 5202 
1949 5202 
1950 5202 
1951 5202 
1952 5202 
1953 5202 
1954 5202 
1955 5202 
1956 5202 
1957 5202 
1958 5202 
1959 5202 
1960 5202 
1961 5202 
1962 5202 
1963 5202 
1964 5202 
1965 5202 
1966 5202 
1967 5202 
1968 5202 
1969 5202 
1970 5202 
1971 5202 
1972 5202 
1973 5202 
1974 5202 
1975 5202 
1976 5202 
1977 5202 
1978 5202 
1979 5202 
1980 5202 
1981 5202 
1982 5202 
1983 5202 
1984 5202 
1985 5202 
1986 5202 
1987 5202 
1988 5202 
1989 5202 
1990 5202 
1991 5202 
1992 5202 
1993 5202 
1994 5202 
1995 5202 
1996 5202 
1997 5202 
1998 5202 
1999 5202 
2000 5202 
2001 5202 
2002 5202 
2003 5202 
2004 5202 
2005 5202 
2006 5202 
2007 5202 
2008 5202 
2009 5202 
2010 5202 
2011 5202 
2012 5202 
2013 5202 
2014 5202 
2015 5202 
2016 5202 
2017 5202 
2018 5202 
2019 5202 
2020 5202 
2021 5202 
2022 5202 
2023 5202 
2024 5202 
2025 5202 
2026 5202 
2027 5202 
2028 5202 
2029 5202 
2030 5202 
2031 5202 
2032 5202 
2033 5202 
2034 5202 
2035 5202 
2036 5202 
2037 5202 
2038 5202 
2039 5202 
2040 5202 
2041 5202 
2042 5202 
2043 5202 
2044 5202 
2045 5202 
2046 5202 
2047 5202 
2048 5202 
2049 5202 
2050 5202 
2051 5202 
2052 5202 
2053 5202 
2054 5202 
2055 5202 
2056 5202 
2057 5202 
2058 5202 
2059 5202 
2060 5202 
2061 5202 
2062 5202 
2063 5202 
2064 5202 
2065 5202 
2066 5202 
2067 5202 
2068 5202 
2069 5202 
2070 5202 
2071 5202 
2072 5202 
2073 5202 
2074 5202 
2075 5202 
2076 5202 
2077 5202 
2078 5202 
2079 5202 
2080 5202 
2081 5202 
2082 5202 
2083 5202 
2084 5202 
2085 5202 
2086 5202 
2087 5202 
2088 5202 
2089 5202 
2090 5202 
2091 5202 
2092 5202 
2093 5202 
2094 5202 
2095 5202 
2096 5202 
2097 5202 
2098 5202 
2099 5202 
2100 5202 
2101 5202 
2102 5202 
2103 5202 
2104 5202 
2105 5202 
2106 5202 
2107 5202 
2108 5202 
2109 5202 
2110 5202 
2111 5202 
2112 5202 
2113 5202 
2114 5202 
2115 5202 
2116 5202 
2117 5202 
2118 5202 
2119 5202 
2120 5202 
2121 5202 
2122 5202 
2123 5202 
2124 5202 
2125 5202 
2126 5202 
2127 5202 
2128 5202 
2129 5202 
2130 5202 
2131 5202 
2132 5202 
2133 5202 
2134 5202 
2135 5202 
2136 5202 
2137 5202 
2138 5202 
2139 5202 
2140 5202 
2141 5202 
2142 5202 
2143 5202 
2144 5202 
2145 5202 
2146 5202 
2147 5202 
2148 5202 
2149 5202 
2150 5202 
2151 5202 
2152 5202 
2153 5202 
2154 5202 
2155 5202 
2156 5202 
2157 5202 
2158 5202 
2159 5202 
2160 5202 
2161 5202 
2162 5202 
2163 5202 
2164 5202 
2165 5202 
2166 5202 
2167 5202 
2168 5202 
2169 5202 
2170 5202 
2171 5202 
2172 5202 
2173 5202 
2174 5202 
2175 5202 
2176 5202 
2177 5202 
2178 5202 
2179 5202 
2180 5202 
2181 5202 
2182 5202 
2183 5202 
2184 5202 
2185 5202 
2186 5202 
2187 5202 
2188 5202 
2189 5202 
2190 5202 
2191 5202 
2192 5202 
2193 5202 
2194 5202 
2195 5202 
2196 5202 
2197 5202 
2198 5202 
2199 5202 
2200 5202 
2201 5202 
2202 5202 
2203 5202 
2204 5202 
2205 5202 
2206 5202 
2207 5202 
2208 5202 
2209 5202 
2210 5202 
2211 5202 
2212 5202 
2213 5202 
2214 5202 
2215 5202 
2216 5202 
2217 5202 
2218 5202 
2219 5202 
2220 5202 
2221 5202 
2222 5202 
2223 5202 
2224 5202 
2225 5202 
2226 5202 
2227 5202 
2228 5202 
2229 5202 
2230 5202 
2231 5202 
2232 5202 
2233 5202 
2234 5202 
2235 5202 
2236 5202 
2237 5202 
2238 5202 
2239 5202 
2240 5202 
2241 5202 
2242 5202 
2243 5202 
2244 5202 
2245 5202 
2246 5202 
2247 5202 
2248 5202 
2249 5202 
2250 5202 
2251 5202 
2252 5202 
2253 5202 
2254 5202 
2255 5202 
2256 5202 
2257 5202 
2258 5202 
2259 5202 
2260 5202 
2261 5202 
2262 5202 
2263 5202 
2264 5202 
2265 5202 
2266 5202 
2267 5202 
2268 5202 
2269 5202 
2270 5202 
2271 5202 
2272 5202 
2273 5202 
2274 5202 
2275 5202 
2276 5202 
2277 5202 
2278 5202 
2279 5202 
2280 5202 
2281 5202 
2282 5202 
2283 5202 
2284 5202 
2285 5202 
2286 5202 
2287 5202 
2288 5202 
2289 5202 
2290 5202 
2291 5202 
2292 5202 
2293 5202 
2294 5202 
2295 5202 
2296 5202 
2297 5202 
2298 5202 
2299 5202 
2300 5202 
2301 5202 
2302 5202 
2303 5202 
2304 5202 
2305 5202 
2306 5202 
2307 5202 
2308 5202 
2309 5202 
2310 5202 
2311 5202 
2312 5202 
2313 5202 
2314 5202 
2315 5202 
2316 5202 
2317 5202 
2318 5202 
2319 5202 
2320 5202 
2321 5202 
2322 5202 
2323 5202 
2324 5202 
2325 5202 
2326 5202 
2327 5202 
2328 5202 
2329 5202 
2330 5202 
2331 5202 
2332 5202 
2333 5202 
2334 5202 
2335 5202 
2336 5202 
2337 5202 
2338 5202 
2339 5202 
2340 5202 
2341 5202 
2342 5202 
2343 5202 
2344 5202 
2345 5202 
2346 5202 
2347 5202 
2348 5202 
2349 5202 
2350 5202 
2351 5202 
2352 5202 
2353 5202 
2354 5202 
2355 5202 
2356 5202 
2357 5202 
2358 5202 
2359 5202 
2360 5202 
2361 5202 
2362 5202 
2363 5202 
2364 5202 
2365 5202 
2366 5202 
2367 5202 
2368 5202 
2369 5202 
2370 5202 
2371 5202 
2372 5202 
2373 5202 
2374 5202 
2375 5202 
2376 5202 
2377 5202 
2378 5202 
2379 5202 
2380 5202 
2381 5202 
2382 5202 
2383 5202 
2384 5202 
2385 5202 
2386 5202 
2387 5202 
2388 5202 
2389 5202 
2390 5202 
2391 5202 
2392 5202 
2393 5202 
2394 5202 
2395 5202 
2396 5202 
2397 5202 
2398 5202 
2399 5202 
2400 5202 
2401 5202 
2402 5202 
2403 5202 
2404 5202 
2405 5202 
2406 5202 
2407 5202 
2408 5202 
2409 5202 
2410 5202 
2411 5202 
2412 5202 
2413 5202 
2414 5202 
2415 5202 
2416 5202 
2417 5202 
2418 5202 
2419 5202 
2420 5202 
2421 5202 
2422 5202 
2423 5202 
2424 5202 
2425 5202 
2426 5202 
2427 5202 
2428 5202 
2429 5202 
2430 5202 
2431 5202 
2432 5202 
2433 5202 
2434 5202 
2435 5202 
2436 5202 
2437 5202 
2438 5202 
2439 5202 
2440 5202 
2441 5202 
2442 5202 
2443 5202 
2444 5202 
2445 5202 
2446 5202 
2447 5202 
2448 5202 
2449 5202 
2450 5202 
2451 5202 
2452 5202 
2453 5202 
2454 5202 
2455 5202 
2456 5202 
2457 5202 
2458 5202 
2459 5202 
2460 5202 
2461 5202 
2462 5202 
2463 5202 
2464 5202 
2465 5202 
2466 5202 
2467 5202 
2468 5202 
2469 5202 
2470 5202 
2471 5202 
2472 5202 
2473 5202 
2474 5202 
2475 5202 
2476 5202 
2477 5202 
2478 5202 
2479 5202 
2480 5202 
2481 5202 
2482 5202 
2483 5202 
2484 5202 
2485 5202 
2486 5202 
2487 5202 
2488 5202 
2489 5202 
2490 5202 
2491 5202 
2492 5202 
2493 5202 
2494 5202 
2495 5202 
2496 5202 
2497 5202 
2498 5202 
2499 5202 
2500 5202 
2501 5202 
2502 5202 
2503 5202 
2504 5202 
2505 5202 
2506 5202 
2507 5202 
2508 5202 
2509 5202 
2510 5202 
2511 5202 
2512 5202 
2513 5202 
2514 5202 
2515 5202 
2516 5202 
2517 5202 
2518 5202 
2519 5202 
2520 5202 
2521 5202 
2522 5202 
2523 5202 
2524 5202 
2525 5202 
2526 5202 
2527 5202 
2528 5202 
2529 5202 
2530 5202 
2531 5202 
2532 5202 
2533 5202 
2534 5202 
2535 5202 
2536 5202 
2537 5202 
2538 5202 
2539 5202 
2540 5202 
2541 5202 
2542 5202 
2543 5202 
2544 5202 
2545 5202 
2546 5202 
2547 5202 
2548 5202 
2549 5202 
2550 5202 
2551 5202 
2552 5202 
2553 5202 
2554 5202 
2555 5202 
2556 5202 
2557 5202 
2558 5202 
2559 5202 
2560 5202 
2561 5202 
2562 5202 
2563 5202 
2564 5202 
2565 5202 
2566 5202 
2567 5202 
2568 5202 
2569 5202 
2570 5202 
2571 5202 
2572 5202 
2573 5202 
2574 5202 
2575 5202 
2576 5202 
2577 5202 
2578 5202 
2579 5202 
2580 5202 
2581 5202 
2582 5202 
2583 5202 
2584 5202 
2585 5202 
2586 5202 
2587 5202 
2588 5202 
2589 5202 
2590 5202 
2591 5202 
2592 5202 
2593 5202 
2594 5202 
2595 5202 
2596 5202 
2597 5202 
2598 5202 
2599 5202 
2600 5202 
2601 5202 
2602 5202 
2603 5202 
2604 5202 
2605 5202 
2606 5202 
2607 5202 
2608 5202 
2609 5202 
2610 5202 
2611 5202 
2612 5202 
2613 5202 
2614 5202 
2615 5202 
2616 5202 
2617 5202 
2618 5202 
2619 5202 
2620 5202 
2621 5202 
2622 5202 
2623 5202 
2624 5202 
2625 5202 
2626 5202 
2627 5202 
2628 5202 
2629 5202 
2630 5202 
2631 5202 

